p cnf 12 50 
-1 12 -2 0
-5 -9 4 0
-1 -4 11 0
2 4 -11 0
10 6 12 0
10 -2 -9 0
-5 -3 12 0
8 -5 12 0
12 9 5 0
-5 3 -8 0
4 11 -5 0
-12 -2 -8 0
3 -10 -2 0
-10 6 2 0
10 -1 -7 0
-8 1 10 0
-2 -7 3 0
1 2 10 0
-8 11 3 0
-12 9 3 0
8 6 9 0
11 2 10 0
-6 -2 5 0
2 -1 7 0
4 -6 -9 0
-1 8 -11 0
-1 11 10 0
11 6 2 0
1 -10 7 0
3 -1 -6 0
6 5 -11 0
-8 -4 6 0
1 8 3 0
-6 7 4 0
-4 -11 3 0
-10 4 -5 0
11 -7 -5 0
4 -11 7 0
-12 3 4 0
-3 9 -6 0
-7 1 -2 0
-1 7 -10 0
2 -8 6 0
-10 -9 -4 0
5 -7 3 0
6 5 -4 0
-11 -4 -5 0
-5 -12 7 0
-7 -5 -10 0
-12 -6 -10 0
